
Gurobi 9.5.1 (linux64) logging started Wed Mar  9 17:58:10 2022

Set parameter LogFile to value "../results/logs/log_2022_03_09_17_57.csv_3_25.log"
Set parameter Method to value 3
Gurobi Optimizer version 9.5.1 build v9.5.1rc2 (linux64)
Thread count: 8 physical cores, 8 logical processors, using up to 8 threads
Optimize a model with 5947 rows, 9882 columns and 44842 nonzeros
Model fingerprint: 0xd5392827
Variable types: 4941 continuous, 4941 integer (4941 binary)
Coefficient statistics:
  Matrix range     [1e+00, 3e+00]
  Objective range  [1e+00, 1e+00]
  Bounds range     [1e+00, 1e+00]
  RHS range        [1e+00, 2e+01]
Found heuristic solution: objective 231.0000000
Presolve removed 2783 rows and 5534 columns
Presolve time: 0.04s
Presolved: 3164 rows, 4348 columns, 16843 nonzeros
Variable types: 2523 continuous, 1825 integer (1795 binary)
Found heuristic solution: objective 254.0000000

Concurrent LP optimizer: primal simplex, dual simplex, and barrier
Showing barrier log only...

Root barrier log...

Ordering time: 0.00s

Barrier statistics:
 AA' NZ     : 1.450e+04
 Factor NZ  : 4.269e+04 (roughly 3 MB of memory)
 Factor Ops : 6.627e+05 (less than 1 second per iteration)
 Threads    : 1

                  Objective                Residual
Iter       Primal          Dual         Primal    Dual     Compl     Time
   0   7.78360951e+03  6.33288690e+03  5.55e+03 1.00e+00  1.16e+01     0s
   1   2.05433760e+03  8.93628728e+03  9.39e+02 4.00e-15  2.28e+00     0s
   2   1.18454306e+03  4.28931693e+03  1.37e+02 2.89e-15  4.52e-01     0s
   3   1.14536671e+03  1.69375662e+03  3.41e+01 5.33e-15  9.07e-02     0s
   4   1.11184410e+03  1.29183017e+03  6.96e+00 3.91e-15  2.47e-02     0s
   5   1.10920317e+03  1.16926854e+03  2.52e+00 5.12e-15  8.53e-03     0s
   6   1.10797162e+03  1.12607753e+03  3.30e-01 7.01e-15  1.99e-03     0s
   7   1.10864840e+03  1.11121396e+03  3.72e-02 4.38e-15  2.68e-04     0s
   8   1.10898679e+03  1.10925922e+03  4.51e-03 4.30e-15  2.92e-05     0s
   9   1.10906299e+03  1.10908852e+03  2.37e-04 5.92e-15  2.49e-06     0s
  10   1.10906826e+03  1.10906835e+03  5.12e-08 6.19e-15  7.60e-09     0s
  11   1.10906831e+03  1.10906831e+03  0.00e+00 5.52e-15  7.60e-12     0s

Barrier solved model in 11 iterations and 0.09 seconds (0.07 work units)
Optimal objective 1.10906831e+03


Solved with barrier

Root relaxation: objective 1.109068e+03, 337 iterations, 0.05 seconds (0.04 work units)

    Nodes    |    Current Node    |     Objective Bounds      |     Work
 Expl Unexpl |  Obj  Depth IntInf | Incumbent    BestBd   Gap | It/Node Time

     0     0 1109.06831    0 1235  254.00000 1109.06831   337%     -    0s
H    0     0                     257.0000000 1109.06831   332%     -    0s
     0     0  609.20920    0  626  257.00000  609.20920   137%     -    0s
     0     0  579.97421    0  496  257.00000  579.97421   126%     -    0s
     0     0  577.65302    0  493  257.00000  577.65302   125%     -    0s
     0     0  577.54083    0  485  257.00000  577.54083   125%     -    0s
     0     0  506.81311    0  448  257.00000  506.81311  97.2%     -    0s
H    0     0                     258.0000000  497.30171  92.8%     -    0s
     0     0  497.30171    0  455  258.00000  497.30171  92.8%     -    0s
     0     0  496.48121    0  435  258.00000  496.48121  92.4%     -    0s
     0     0  496.33409    0  443  258.00000  496.33409  92.4%     -    0s
H    0     0                     259.0000000  496.33409  91.6%     -    0s
H    0     0                     260.0000000  496.33409  90.9%     -    0s
H    0     0                     261.0000000  471.87080  80.8%     -    0s
     0     0  471.87080    0  406  261.00000  471.87080  80.8%     -    0s
H    0     0                     267.0000000  467.50846  75.1%     -    0s
     0     0  467.50846    0  413  267.00000  467.50846  75.1%     -    0s
     0     0  466.25528    0  413  267.00000  466.25528  74.6%     -    0s
     0     0  465.26342    0  381  267.00000  465.26342  74.3%     -    0s
     0     0  465.14816    0  394  267.00000  465.14816  74.2%     -    0s
     0     0  455.96775    0  409  267.00000  455.96775  70.8%     -    0s
     0     0  452.83602    0  391  267.00000  452.83602  69.6%     -    0s
     0     0  451.24914    0  459  267.00000  451.24914  69.0%     -    0s
     0     0  450.99246    0  400  267.00000  450.99246  68.9%     -    0s
     0     0  446.55072    0  473  267.00000  446.55072  67.2%     -    1s
H    0     0                     271.0000000  444.66005  64.1%     -    1s
     0     0  444.66005    0  426  271.00000  444.66005  64.1%     -    1s
     0     0  444.16083    0  471  271.00000  444.16083  63.9%     -    1s
     0     0  441.21953    0  372  271.00000  441.21953  62.8%     -    1s
     0     0  440.11205    0  392  271.00000  440.11205  62.4%     -    1s
     0     0  439.78974    0  350  271.00000  439.78974  62.3%     -    1s
     0     0  437.27739    0  362  271.00000  437.27739  61.4%     -    1s
     0     0  437.27739    0  361  271.00000  437.27739  61.4%     -    1s
     0     2  437.27529    0  361  271.00000  437.27529  61.4%     -    1s
H   75    89                     274.0000000  435.49019  58.9%  79.6    1s
H   76    89                     277.0000000  435.49019  57.2%  79.9    1s
H  123   132                     280.0000000  435.49019  55.5%  70.8    1s
H  124   132                     283.0000000  435.49019  53.9%  70.7    1s
H  664   666                     288.0000000  435.49019  51.2%  45.8    2s
H  667   666                     289.0000000  435.49019  50.7%  45.7    2s
H 1378  1299                     340.0000000  435.37642  28.1%  42.5    3s
H 1648  1507                     347.0000000  435.37642  25.5%  42.9    4s
  1657  1510  418.82634   55  372  347.00000  435.37642  25.5%  42.7    5s
H 1667  1440                     349.0000000  426.67967  22.3%  42.4    5s
  1719  1475  408.00679    6  250  349.00000  408.00679  16.9%  41.1   10s
H 1754  1425                     353.0000000  407.06577  15.3%  49.5   12s
  1787  1450  406.02228   29  214  353.00000  406.92048  15.3%  53.4   17s
H 1818  1402                     356.0000000  405.49789  13.9%  54.7   18s
H 1900  1384                     359.0000000  405.49789  13.0%  56.3   19s
H 1942  1348                     360.0000000  405.49789  12.6%  56.9   19s
H 1943  1285                     363.0000000  405.49789  11.7%  56.9   19s
H 1946  1225                     371.0000001  405.49789  9.30%  57.0   19s
  1985  1272  395.76046   44   76  371.00000  405.49789  9.30%  57.1   20s
H 2015  1224                     402.0000000  405.49789  0.87%  57.4   20s

Cutting planes:
  Gomory: 115
  Lift-and-project: 165
  Implied bound: 14
  MIR: 741
  Flow cover: 806
  RLT: 79
  Relax-and-lift: 28

Explored 2517 nodes (138681 simplex iterations) in 21.29 seconds (24.53 work units)
Thread count was 8 (of 8 available processors)

Solution count 10: 402 371 363 ... 340

Optimal solution found (tolerance 1.00e-04)
Best objective 4.020000000000e+02, best bound 4.020000000000e+02, gap 0.0000%
